LatticeConstant 1.0 Ang
%block LatticeVectors
 15.96622800 0.00000000 0.00000000
 0.00000000 17.24643300 0.00000000
 0.00000000 0.00000000 10.05855500
%endblock LatticeVectors

NumberOfAtoms 19
AtomicCoordinatesFormat Ang
%block AtomicCoordinatesAndAtomicSpecies
  6.54471511  9.03087716  5.00103768 1 #  1: C
  7.55617011 10.00395816  5.00133668 1 #  2: C
  8.95383711  9.64504316  5.00981268 1 #  3: C
  9.42402311  8.33476016  5.01570868 1 #  4: C
  8.76032011  5.82892216  4.99281168 1 #  5: C
  7.76152611  4.88317616  4.98495468 1 #  6: C
  6.38756711  5.24394116  4.99183468 1 #  7: C
  5.97282611  6.55774216  4.99657968 1 #  8: C
  6.96634011  7.59187316  4.99876768 1 #  9: C
  8.43890011  7.26886116  5.00326468 1 # 10: C
  5.21002111  9.36934116  5.00178568 2 # 11: O
  7.33723811 11.05877516  4.99687768 3 # 12: H
  9.73838511 10.40446816  5.01211568 3 # 13: H
 10.49827111  8.01172916  5.03153768 3 # 14: H
  4.95651011  6.88246916  4.99917768 3 # 15: H
  5.58950311  4.47165816  4.99466368 3 # 16: H
  8.04027611  3.81234216  4.97298268 3 # 17: H
  9.83152711  5.59524716  4.99225868 3 # 18: H
  4.53204311  8.50481516  5.00249168 3 # 19: H
%endblock AtomicCoordinatesAndAtomicSpecies

NumberOfSpecies 3
%block ChemicalSpeciesLabel
 1 6 C
 2 8 O
 3 1 H
%endblock ChemicalSpeciesLabel
